row=10;
column=10;
Board=[|1,1,1,1,1,0,1,0,1,0|1,0,1,0,1,0,1,1,0,0|0,0,0,1,0,0,0,0,1,0|0,0,0,0,0,0,0,0,0,0|0,0,1,0,0,0,1,0,0,0|1,0,0,0,0,0,0,0,0,0|0,0,0,0,0,0,0,0,0,0|0,0,0,0,0,0,0,0,0,0|1,0,0,0,1,0,0,0,1,0|0,0,0,0,0,0,0,0,0,0|];
right = [1,2,0,4,1,3,1,4,0,4];
bottom = [1,3,1,3,1,3,1,4,0,3];
